\ Model dg
\ LP format - for model browsing. Use MPS format to capture full model detail.
Minimize
  6 x[0,0] + 4 x[0,1] + 4 x[0,2] + 4 x[0,3] + 3 x[0,4] + 8 x[1,0] + 3 x[1,1]
   + 6 x[1,2] + 9 x[1,3] + x[1,4] + 3 x[2,0] + 2 x[2,1] + 9 x[2,2]
   + 9 x[2,3] + x[2,4] + 2 x[3,0] + 3 x[3,1] + 4 x[3,2] + 9 x[3,3]
   + 8 x[3,4] + 3 x[4,0] + x[4,1] + 8 x[4,2] + x[4,3] + 5 x[4,4] + 2 x[5,0]
   + 6 x[5,1] + 4 x[5,2] + x[5,3] + 7 x[5,4] + 6 x[6,0] + 9 x[6,1]
   + 5 x[6,2] + 4 x[6,3] + 8 x[6,4] + 8 x[7,0] + 8 x[7,1] + 6 x[7,2]
   + 4 x[7,3] + 7 x[7,4] + 9 x[8,0] + x[8,1] + 2 x[8,2] + 9 x[8,3]
   + 4 x[8,4] + 4 x[9,0] + 8 x[9,1] + x[9,2] + 5 x[9,3] + 3 x[9,4]
   + 7 x[10,0] + 7 x[10,1] + 4 x[10,2] + 4 x[10,3] + 5 x[10,4] + 6 x[11,0]
   + 2 x[11,1] + 9 x[11,2] + 6 x[11,3] + 9 x[11,4] + 2 x[12,0] + 6 x[12,1]
   + 2 x[12,2] + 9 x[12,3] + 3 x[12,4] + x[13,0] + 7 x[13,1] + 8 x[13,2]
   + 2 x[13,3] + x[13,4] + 6 x[14,0] + 4 x[14,1] + 9 x[14,2] + 7 x[14,3]
   + 8 x[14,4] + x[15,0] + 8 x[15,1] + 6 x[15,2] + 3 x[15,3] + 9 x[15,4]
   + 4 x[16,0] + 9 x[16,1] + 3 x[16,2] + 7 x[16,3] + 6 x[16,4] + 4 x[17,0]
   + 8 x[17,1] + x[17,2] + 2 x[17,3] + 3 x[17,4] + 6 x[18,0] + x[18,1]
   + 7 x[18,2] + 6 x[18,3] + 8 x[18,4] + 5 x[19,0] + 4 x[19,1] + 6 x[19,2]
   + 3 x[19,3] + 9 x[19,4] + 3 x[20,0] + 7 x[20,1] + 4 x[20,2] + 6 x[20,3]
   + 7 x[20,4] + 2 x[21,0] + x[21,1] + 6 x[21,2] + 4 x[21,3] + 5 x[21,4]
   + 9 x[22,0] + x[22,1] + 7 x[22,2] + 8 x[22,3] + 5 x[22,4] + 7 x[23,0]
   + 4 x[23,1] + 9 x[23,2] + 3 x[23,3] + 5 x[23,4] + 4 x[24,0] + x[24,1]
   + 3 x[24,2] + 9 x[24,3] + 9 x[24,4] + 4 x[25,0] + 5 x[25,1] + 9 x[25,2]
   + 7 x[25,3] + 7 x[25,4] + 8 x[26,0] + 8 x[26,1] + 5 x[26,2] + 7 x[26,3]
   + 3 x[26,4] + 6 x[27,0] + 4 x[27,1] + 8 x[27,2] + 8 x[27,3] + 5 x[27,4]
   + 5 x[28,0] + 3 x[28,1] + x[28,2] + 8 x[28,3] + 6 x[28,4] + 9 x[29,0]
   + 3 x[29,1] + 9 x[29,2] + 8 x[29,3] + 9 x[29,4] + 7 x[30,0] + 4 x[30,1]
   + 2 x[30,2] + 9 x[30,3] + x[30,4] + 3 x[31,0] + 4 x[31,1] + 6 x[31,2]
   + x[31,3] + 7 x[31,4] + 3 x[32,0] + 9 x[32,1] + 4 x[32,2] + 7 x[32,3]
   + 6 x[32,4] + x[33,0] + 7 x[33,1] + x[33,2] + 2 x[33,3] + 8 x[33,4]
   + 6 x[34,0] + 6 x[34,1] + 7 x[34,2] + 5 x[34,3] + 9 x[34,4] + 8 x[35,0]
   + 2 x[35,1] + 4 x[35,2] + 9 x[35,3] + 5 x[35,4] + 4 x[36,0] + x[36,1]
   + 6 x[36,2] + 8 x[36,3] + 9 x[36,4] + 7 x[37,0] + 9 x[37,1] + 7 x[37,2]
   + 6 x[37,3] + 6 x[37,4] + 2 x[38,0] + 9 x[38,1] + 6 x[38,2] + 4 x[38,3]
   + 5 x[38,4] + 2 x[39,0] + 6 x[39,1] + x[39,2] + 9 x[39,3] + x[39,4]
   + 9 x[40,0] + 8 x[40,1] + 3 x[40,2] + 8 x[40,3] + 4 x[40,4] + x[41,0]
   + 4 x[41,1] + 3 x[41,2] + 6 x[41,3] + 2 x[41,4] + 4 x[42,0] + 2 x[42,1]
   + 2 x[42,2] + 8 x[42,3] + 5 x[42,4] + 7 x[43,0] + 5 x[43,1] + 2 x[43,2]
   + 5 x[43,3] + x[43,4] + 4 x[44,0] + 3 x[44,1] + 2 x[44,2] + 9 x[44,3]
   + 2 x[44,4] + 8 x[45,0] + 9 x[45,1] + 5 x[45,2] + 6 x[45,3] + x[45,4]
   + 3 x[46,0] + x[46,1] + 5 x[46,2] + 8 x[46,3] + 3 x[46,4] + 5 x[47,0]
   + 6 x[47,1] + 6 x[47,2] + x[47,3] + x[47,4] + 8 x[48,0] + 2 x[48,1]
   + 8 x[48,2] + 2 x[48,3] + 8 x[48,4] + 5 x[49,0] + 3 x[49,1] + 5 x[49,2]
   + 9 x[49,3] + 7 x[49,4]
Subject To
 R0: x[0,0] + x[0,1] + x[0,2] + x[0,3] + x[0,4] = 1
 R1: x[1,0] + x[1,1] + x[1,2] + x[1,3] + x[1,4] = 1
 R2: x[2,0] + x[2,1] + x[2,2] + x[2,3] + x[2,4] = 1
 R3: x[3,0] + x[3,1] + x[3,2] + x[3,3] + x[3,4] = 1
 R4: x[4,0] + x[4,1] + x[4,2] + x[4,3] + x[4,4] = 1
 R5: x[5,0] + x[5,1] + x[5,2] + x[5,3] + x[5,4] = 1
 R6: x[6,0] + x[6,1] + x[6,2] + x[6,3] + x[6,4] = 1
 R7: x[7,0] + x[7,1] + x[7,2] + x[7,3] + x[7,4] = 1
 R8: x[8,0] + x[8,1] + x[8,2] + x[8,3] + x[8,4] = 1
 R9: x[9,0] + x[9,1] + x[9,2] + x[9,3] + x[9,4] = 1
 R10: x[10,0] + x[10,1] + x[10,2] + x[10,3] + x[10,4] = 1
 R11: x[11,0] + x[11,1] + x[11,2] + x[11,3] + x[11,4] = 1
 R12: x[12,0] + x[12,1] + x[12,2] + x[12,3] + x[12,4] = 1
 R13: x[13,0] + x[13,1] + x[13,2] + x[13,3] + x[13,4] = 1
 R14: x[14,0] + x[14,1] + x[14,2] + x[14,3] + x[14,4] = 1
 R15: x[15,0] + x[15,1] + x[15,2] + x[15,3] + x[15,4] = 1
 R16: x[16,0] + x[16,1] + x[16,2] + x[16,3] + x[16,4] = 1
 R17: x[17,0] + x[17,1] + x[17,2] + x[17,3] + x[17,4] = 1
 R18: x[18,0] + x[18,1] + x[18,2] + x[18,3] + x[18,4] = 1
 R19: x[19,0] + x[19,1] + x[19,2] + x[19,3] + x[19,4] = 1
 R20: x[20,0] + x[20,1] + x[20,2] + x[20,3] + x[20,4] = 1
 R21: x[21,0] + x[21,1] + x[21,2] + x[21,3] + x[21,4] = 1
 R22: x[22,0] + x[22,1] + x[22,2] + x[22,3] + x[22,4] = 1
 R23: x[23,0] + x[23,1] + x[23,2] + x[23,3] + x[23,4] = 1
 R24: x[24,0] + x[24,1] + x[24,2] + x[24,3] + x[24,4] = 1
 R25: x[25,0] + x[25,1] + x[25,2] + x[25,3] + x[25,4] = 1
 R26: x[26,0] + x[26,1] + x[26,2] + x[26,3] + x[26,4] = 1
 R27: x[27,0] + x[27,1] + x[27,2] + x[27,3] + x[27,4] = 1
 R28: x[28,0] + x[28,1] + x[28,2] + x[28,3] + x[28,4] = 1
 R29: x[29,0] + x[29,1] + x[29,2] + x[29,3] + x[29,4] = 1
 R30: x[30,0] + x[30,1] + x[30,2] + x[30,3] + x[30,4] = 1
 R31: x[31,0] + x[31,1] + x[31,2] + x[31,3] + x[31,4] = 1
 R32: x[32,0] + x[32,1] + x[32,2] + x[32,3] + x[32,4] = 1
 R33: x[33,0] + x[33,1] + x[33,2] + x[33,3] + x[33,4] = 1
 R34: x[34,0] + x[34,1] + x[34,2] + x[34,3] + x[34,4] = 1
 R35: x[35,0] + x[35,1] + x[35,2] + x[35,3] + x[35,4] = 1
 R36: x[36,0] + x[36,1] + x[36,2] + x[36,3] + x[36,4] = 1
 R37: x[37,0] + x[37,1] + x[37,2] + x[37,3] + x[37,4] = 1
 R38: x[38,0] + x[38,1] + x[38,2] + x[38,3] + x[38,4] = 1
 R39: x[39,0] + x[39,1] + x[39,2] + x[39,3] + x[39,4] = 1
 R40: x[40,0] + x[40,1] + x[40,2] + x[40,3] + x[40,4] = 1
 R41: x[41,0] + x[41,1] + x[41,2] + x[41,3] + x[41,4] = 1
 R42: x[42,0] + x[42,1] + x[42,2] + x[42,3] + x[42,4] = 1
 R43: x[43,0] + x[43,1] + x[43,2] + x[43,3] + x[43,4] = 1
 R44: x[44,0] + x[44,1] + x[44,2] + x[44,3] + x[44,4] = 1
 R45: x[45,0] + x[45,1] + x[45,2] + x[45,3] + x[45,4] = 1
 R46: x[46,0] + x[46,1] + x[46,2] + x[46,3] + x[46,4] = 1
 R47: x[47,0] + x[47,1] + x[47,2] + x[47,3] + x[47,4] = 1
 R48: x[48,0] + x[48,1] + x[48,2] + x[48,3] + x[48,4] = 1
 R49: x[49,0] + x[49,1] + x[49,2] + x[49,3] + x[49,4] = 1
 R50: 8 x[0,0] + 7 x[1,0] + 8 x[2,0] + 3 x[3,0] + 8 x[4,0] + 2 x[5,0]
   + 7 x[6,0] + 4 x[7,0] + 5 x[8,0] + 5 x[9,0] + 4 x[10,0] + 6 x[11,0]
   + 5 x[12,0] + 4 x[13,0] + x[14,0] + 6 x[15,0] + x[16,0] + 7 x[17,0]
   + 4 x[18,0] + 4 x[19,0] + 4 x[20,0] + 2 x[21,0] + 4 x[22,0] + 3 x[23,0]
   + 4 x[24,0] + 7 x[25,0] + 7 x[26,0] + 8 x[27,0] + 9 x[28,0] + 7 x[29,0]
   + 2 x[30,0] + 8 x[31,0] + 8 x[32,0] + 6 x[33,0] + 5 x[34,0] + 5 x[35,0]
   + 7 x[36,0] + 2 x[37,0] + 2 x[38,0] + x[39,0] + 5 x[40,0] + 6 x[41,0]
   + x[42,0] + 2 x[43,0] + 5 x[44,0] + 2 x[45,0] + 6 x[46,0] + 2 x[47,0]
   + 3 x[48,0] + 3 x[49,0] <= 44
 R51: 8 x[0,1] + 8 x[1,1] + 6 x[2,1] + 3 x[3,1] + 8 x[4,1] + 4 x[5,1]
   + 6 x[6,1] + 7 x[7,1] + x[8,1] + 2 x[9,1] + x[10,1] + 5 x[11,1]
   + 5 x[12,1] + 4 x[13,1] + 8 x[14,1] + 4 x[15,1] + 7 x[16,1] + 9 x[17,1]
   + 6 x[18,1] + x[19,1] + 4 x[20,1] + 3 x[21,1] + 5 x[22,1] + 5 x[23,1]
   + 3 x[24,1] + 6 x[25,1] + 4 x[26,1] + 6 x[27,1] + 8 x[28,1] + x[29,1]
   + x[30,1] + 4 x[31,1] + 5 x[32,1] + 7 x[33,1] + 8 x[34,1] + 5 x[35,1]
   + 5 x[36,1] + 6 x[37,1] + x[38,1] + 6 x[39,1] + 6 x[40,1] + 9 x[41,1]
   + 7 x[42,1] + 2 x[43,1] + 8 x[44,1] + 8 x[45,1] + 9 x[46,1] + 8 x[47,1]
   + 8 x[48,1] + 9 x[49,1] <= 44
 R52: 5 x[0,2] + 5 x[1,2] + 6 x[2,2] + 2 x[3,2] + x[4,2] + 3 x[5,2]
   + 7 x[6,2] + 3 x[7,2] + 6 x[8,2] + 6 x[9,2] + 3 x[10,2] + 9 x[11,2]
   + 9 x[12,2] + 2 x[13,2] + 7 x[14,2] + 7 x[15,2] + 4 x[16,2] + 9 x[17,2]
   + 2 x[18,2] + 6 x[19,2] + 2 x[20,2] + 5 x[21,2] + 2 x[22,2] + 7 x[23,2]
   + 5 x[24,2] + 2 x[25,2] + 5 x[26,2] + 2 x[27,2] + 4 x[28,2] + 5 x[29,2]
   + 8 x[30,2] + 6 x[31,2] + 3 x[32,2] + x[33,2] + 6 x[34,2] + 3 x[35,2]
   + 7 x[36,2] + 3 x[37,2] + 9 x[38,2] + 6 x[39,2] + x[40,2] + 4 x[41,2]
   + 8 x[42,2] + 7 x[43,2] + x[44,2] + x[45,2] + x[46,2] + 4 x[47,2]
   + 5 x[48,2] + 3 x[49,2] <= 44
 R53: 8 x[0,3] + 5 x[1,3] + 3 x[2,3] + 8 x[3,3] + x[4,3] + 2 x[5,3]
   + 7 x[6,3] + 5 x[7,3] + x[8,3] + x[9,3] + 8 x[10,3] + 7 x[11,3]
   + 3 x[12,3] + 3 x[13,3] + x[14,3] + 5 x[15,3] + 4 x[16,3] + 9 x[17,3]
   + 8 x[18,3] + 9 x[19,3] + x[20,3] + 9 x[21,3] + 7 x[22,3] + 5 x[23,3]
   + x[24,3] + 6 x[25,3] + 9 x[26,3] + 7 x[27,3] + 8 x[28,3] + 2 x[29,3]
   + 7 x[30,3] + 9 x[31,3] + 7 x[32,3] + 4 x[33,3] + 4 x[34,3] + 9 x[35,3]
   + 8 x[36,3] + 3 x[37,3] + 6 x[38,3] + 6 x[39,3] + 3 x[40,3] + 3 x[41,3]
   + 2 x[42,3] + 4 x[43,3] + 3 x[44,3] + 6 x[45,3] + 3 x[46,3] + 8 x[47,3]
   + 2 x[48,3] + 5 x[49,3] <= 44
 R54: 8 x[0,4] + 8 x[1,4] + x[2,4] + x[3,4] + 3 x[4,4] + 4 x[5,4]
   + 5 x[6,4] + 2 x[7,4] + 7 x[8,4] + x[9,4] + 2 x[10,4] + 2 x[11,4]
   + 6 x[12,4] + 7 x[13,4] + x[14,4] + 5 x[15,4] + 6 x[16,4] + 2 x[17,4]
   + 8 x[18,4] + 4 x[19,4] + 7 x[20,4] + x[21,4] + 4 x[22,4] + 6 x[23,4]
   + 7 x[24,4] + 5 x[25,4] + 2 x[26,4] + 5 x[27,4] + 5 x[28,4] + x[29,4]
   + 3 x[30,4] + 6 x[31,4] + 5 x[32,4] + 6 x[33,4] + 9 x[34,4] + x[35,4]
   + x[36,4] + 6 x[37,4] + 8 x[38,4] + x[39,4] + 5 x[40,4] + 9 x[41,4]
   + x[42,4] + 4 x[43,4] + 5 x[44,4] + 6 x[45,4] + 7 x[46,4] + 8 x[47,4]
   + 8 x[48,4] + 7 x[49,4] <= 44
Bounds
Binaries
 x[0,0] x[0,1] x[0,2] x[0,3] x[0,4] x[1,0] x[1,1] x[1,2] x[1,3] x[1,4]
 x[2,0] x[2,1] x[2,2] x[2,3] x[2,4] x[3,0] x[3,1] x[3,2] x[3,3] x[3,4]
 x[4,0] x[4,1] x[4,2] x[4,3] x[4,4] x[5,0] x[5,1] x[5,2] x[5,3] x[5,4]
 x[6,0] x[6,1] x[6,2] x[6,3] x[6,4] x[7,0] x[7,1] x[7,2] x[7,3] x[7,4]
 x[8,0] x[8,1] x[8,2] x[8,3] x[8,4] x[9,0] x[9,1] x[9,2] x[9,3] x[9,4]
 x[10,0] x[10,1] x[10,2] x[10,3] x[10,4] x[11,0] x[11,1] x[11,2] x[11,3]
 x[11,4] x[12,0] x[12,1] x[12,2] x[12,3] x[12,4] x[13,0] x[13,1] x[13,2]
 x[13,3] x[13,4] x[14,0] x[14,1] x[14,2] x[14,3] x[14,4] x[15,0] x[15,1]
 x[15,2] x[15,3] x[15,4] x[16,0] x[16,1] x[16,2] x[16,3] x[16,4] x[17,0]
 x[17,1] x[17,2] x[17,3] x[17,4] x[18,0] x[18,1] x[18,2] x[18,3] x[18,4]
 x[19,0] x[19,1] x[19,2] x[19,3] x[19,4] x[20,0] x[20,1] x[20,2] x[20,3]
 x[20,4] x[21,0] x[21,1] x[21,2] x[21,3] x[21,4] x[22,0] x[22,1] x[22,2]
 x[22,3] x[22,4] x[23,0] x[23,1] x[23,2] x[23,3] x[23,4] x[24,0] x[24,1]
 x[24,2] x[24,3] x[24,4] x[25,0] x[25,1] x[25,2] x[25,3] x[25,4] x[26,0]
 x[26,1] x[26,2] x[26,3] x[26,4] x[27,0] x[27,1] x[27,2] x[27,3] x[27,4]
 x[28,0] x[28,1] x[28,2] x[28,3] x[28,4] x[29,0] x[29,1] x[29,2] x[29,3]
 x[29,4] x[30,0] x[30,1] x[30,2] x[30,3] x[30,4] x[31,0] x[31,1] x[31,2]
 x[31,3] x[31,4] x[32,0] x[32,1] x[32,2] x[32,3] x[32,4] x[33,0] x[33,1]
 x[33,2] x[33,3] x[33,4] x[34,0] x[34,1] x[34,2] x[34,3] x[34,4] x[35,0]
 x[35,1] x[35,2] x[35,3] x[35,4] x[36,0] x[36,1] x[36,2] x[36,3] x[36,4]
 x[37,0] x[37,1] x[37,2] x[37,3] x[37,4] x[38,0] x[38,1] x[38,2] x[38,3]
 x[38,4] x[39,0] x[39,1] x[39,2] x[39,3] x[39,4] x[40,0] x[40,1] x[40,2]
 x[40,3] x[40,4] x[41,0] x[41,1] x[41,2] x[41,3] x[41,4] x[42,0] x[42,1]
 x[42,2] x[42,3] x[42,4] x[43,0] x[43,1] x[43,2] x[43,3] x[43,4] x[44,0]
 x[44,1] x[44,2] x[44,3] x[44,4] x[45,0] x[45,1] x[45,2] x[45,3] x[45,4]
 x[46,0] x[46,1] x[46,2] x[46,3] x[46,4] x[47,0] x[47,1] x[47,2] x[47,3]
 x[47,4] x[48,0] x[48,1] x[48,2] x[48,3] x[48,4] x[49,0] x[49,1] x[49,2]
 x[49,3] x[49,4]
End
